\ This file has been generated by DOcplex
\ ENCODING=ISO-8859-1
\Problem name: Qrandom11042_6.lp

Minimize
 obj: - 9468 x0 - 4734 x1 - 2367 x2 - 9456 x3 - 4728 x4 - 2364 x5 + [ 5408 x0^2
      + 5408 x0*x1 + 2704 x0*x2 + 10816 x0*x3 + 5408 x0*x4 + 2704 x0*x5
      + 1352 x1^2 + 1352 x1*x2 + 5408 x1*x3 + 2704 x1*x4 + 1352 x1*x5 + 338 x2^2
      + 2704 x2*x3 + 1352 x2*x4 + 676 x2*x5 + 5504 x3^2 + 5504 x3*x4
      + 2752 x3*x5 + 1376 x4^2 + 1376 x4*x5 + 344 x5^2 ]/2 + 8281
Subject To

Bounds
 0 <= x0 <= 1
 0 <= x1 <= 1
 0 <= x2 <= 1
 0 <= x3 <= 1
 0 <= x4 <= 1
 0 <= x5 <= 1

Binaries
 x0 x1 x2 x3 x4 x5
End
